p cnf 100 1
100 0
w 1 0.861142
w 2 1 0
w 2 -1 1
w 3 2 0.447794
w 3 -2 0.0790394
w 4 3 0
w 4 -3 1
w 5 4 1
w 5 -4 0
w 6 5 0.67503
w 6 -5 0.011004
w 7 6 1
w 7 -6 0
w 8 7 0.821509
w 8 -7 0.576813
w 9 8 1
w 9 -8 0
w 10 9 0
w 10 -9 1
w 11 1 0
w 11 -1 1
w 12 11 2 1
w 12 11 -2 0
w 12 -11 2 0
w 12 -11 -2 1
w 13 12 3 1
w 13 12 -3 0
w 13 -12 3 1
w 13 -12 -3 1
w 14 13 4 0.0935058
w 14 13 -4 0.226492
w 14 -13 4 0.984968
w 14 -13 -4 0.18755
w 15 14 5 0.428157
w 15 14 -5 0.775965
w 15 -14 5 0.371525
w 15 -14 -5 0.439161
w 16 15 6 0
w 16 15 -6 1
w 16 -15 6 0
w 16 -15 -6 0
w 17 16 7 1
w 17 16 -7 0
w 17 -16 7 0
w 17 -16 -7 0
w 18 17 8 1
w 18 17 -8 0
w 18 -17 8 1
w 18 -17 -8 1
w 19 18 9 0.994913
w 19 18 -9 0.123725
w 19 -18 9 0.329052
w 19 -18 -9 0.142366
w 20 19 10 0.422557
w 20 19 -10 0.368858
w 20 -19 10 0.980257
w 20 -19 -10 0.610108
w 21 11 1
w 21 -11 0
w 22 21 12 0
w 22 21 -12 1
w 22 -21 12 1
w 22 -21 -12 1
w 23 22 13 1
w 23 22 -13 1
w 23 -22 13 1
w 23 -22 -13 0
w 24 23 14 0.633577
w 24 23 -14 0.214418
w 24 -23 14 0.892776
w 24 -23 -14 0.646123
w 25 24 15 0.733526
w 25 24 -15 0.783688
w 25 -24 15 0.349585
w 25 -24 -15 0.728439
w 26 25 16 0.678637
w 26 25 -16 0.870804
w 26 -25 16 0.902701
w 26 -25 -16 0.101194
w 27 26 17 1
w 27 26 -17 0
w 27 -26 17 0
w 27 -26 -17 0
w 28 27 18 0
w 28 27 -18 1
w 28 -27 18 0
w 28 -27 -18 1
w 29 28 19 0
w 29 28 -19 1
w 29 -28 19 0
w 29 -28 -19 1
w 30 29 20 0.657394
w 30 29 -20 0.8949
w 30 -29 20 0.210224
w 30 -29 -20 0.550171
w 31 21 0.876469
w 31 -21 0.283696
w 32 31 22 1
w 32 31 -22 0
w 32 -31 22 1
w 32 -31 -22 1
w 33 32 23 0.134825
w 33 32 -23 0.0058863
w 33 -32 23 0.122601
w 33 -32 -23 0.0177822
w 34 33 24 0.427616
w 34 33 -24 0.309153
w 34 -33 24 0.814563
w 34 -33 -24 0.169509
w 35 34 25 0
w 35 34 -25 1
w 35 -34 25 0
w 35 -34 -25 0
w 36 35 26 0.617674
w 36 35 -26 0.949304
w 36 -35 26 0.66986
w 36 -35 -26 0.275068
w 37 36 27 0.880084
w 37 36 -27 0.825239
w 37 -36 27 0.385229
w 37 -36 -27 0.756553
w 38 37 28 0
w 38 37 -28 0
w 38 -37 28 0
w 38 -37 -28 1
w 39 38 29 0.00400881
w 39 38 -29 0.076888
w 39 -38 29 0.893187
w 39 -38 -29 0.12661
w 40 39 30 0
w 40 39 -30 0
w 40 -39 30 1
w 40 -39 -30 0
w 41 31 0.851923
w 41 -31 0.897685
w 42 41 32 0.570389
w 42 41 -32 0.585666
w 42 -41 32 0.279395
w 42 -41 -32 0.188063
w 43 42 33 0.949255
w 43 42 -33 0.463131
w 43 -42 33 0.379175
w 43 -42 -33 0.829339
w 44 43 34 0
w 44 43 -34 1
w 44 -43 34 0
w 44 -43 -34 0
w 45 44 35 0.518374
w 45 44 -35 0.416407
w 45 -44 35 0.455801
w 45 -44 -35 0.522383
w 46 45 36 1
w 46 45 -36 0
w 46 -45 36 1
w 46 -45 -36 1
w 47 46 37 0
w 47 46 -37 1
w 47 -46 37 0
w 47 -46 -37 1
w 48 47 38 0
w 48 47 -38 1
w 48 -47 38 0
w 48 -47 -38 0
w 49 48 39 0
w 49 48 -39 0
w 49 -48 39 1
w 49 -48 -39 0
w 50 49 40 1
w 50 49 -40 0
w 50 -49 40 1
w 50 -49 -40 1
w 51 41 0.269343
w 51 -41 0.436952
w 52 51 42 1
w 52 51 -42 0
w 52 -51 42 0
w 52 -51 -42 0
w 53 52 43 0.643939
w 53 52 -43 0.510002
w 53 -52 43 0.89313
w 53 -52 -43 0.570893
w 54 53 44 0
w 54 53 -44 1
w 54 -53 44 1
w 54 -53 -44 0
w 55 54 45 0.369977
w 55 54 -45 0.445389
w 55 -54 45 0.675828
w 55 -54 -45 0.435271
w 56 55 46 0
w 56 55 -46 0
w 56 -55 46 1
w 56 -55 -46 0
w 57 56 47 0.793933
w 57 56 -47 0.18697
w 57 -56 47 0.809245
w 57 -56 -47 0.230885
w 58 57 48 1
w 58 57 -48 1
w 58 -57 48 0
w 58 -57 -48 1
w 59 58 49 0.445747
w 59 58 -49 0.685629
w 59 -58 49 0.189347
w 59 -58 -49 0.338877
w 60 59 50 1
w 60 59 -50 0
w 60 -59 50 1
w 60 -59 -50 0
w 61 51 0.274594
w 61 -51 0.680851
w 62 61 52 1
w 62 61 -52 0
w 62 -61 52 1
w 62 -61 -52 1
w 63 62 53 0
w 63 62 -53 0
w 63 -62 53 1
w 63 -62 -53 0
w 64 63 54 1
w 64 63 -54 0
w 64 -63 54 0
w 64 -63 -54 0
w 65 64 55 1
w 65 64 -55 1
w 65 -64 55 1
w 65 -64 -55 0
w 66 65 56 1
w 66 65 -56 0
w 66 -65 56 0
w 66 -65 -56 0
w 67 66 57 0
w 67 66 -57 1
w 67 -66 57 0
w 67 -66 -57 0
w 68 67 58 1
w 68 67 -58 1
w 68 -67 58 0
w 68 -67 -58 1
w 69 68 59 0.259753
w 69 68 -59 0.29911
w 69 -68 59 0.0582891
w 69 -68 -59 0.0564108
w 70 69 60 1
w 70 69 -60 1
w 70 -69 60 0
w 70 -69 -60 1
w 71 61 1
w 71 -61 0
w 72 71 62 1
w 72 71 -62 0
w 72 -71 62 0
w 72 -71 -62 0
w 73 72 63 0
w 73 72 -63 0
w 73 -72 63 1
w 73 -72 -63 0
w 74 73 64 0.613353
w 74 73 -64 0.158097
w 74 -73 64 0.301903
w 74 -73 -64 0.641046
w 75 74 65 0.010178
w 75 74 -65 0.898075
w 75 -74 65 0.222125
w 75 -74 -65 0.623509
w 76 75 66 0
w 76 75 -66 0
w 76 -75 66 1
w 76 -75 -66 1
w 77 76 67 0.298193
w 77 76 -67 0.0442994
w 77 -76 67 0.161958
w 77 -76 -67 0.570822
w 78 77 68 0.226491
w 78 77 -68 0.711473
w 78 -77 68 0.756857
w 78 -77 -68 0.873518
w 79 78 69 0.875883
w 79 78 -69 0.359563
w 79 -78 69 0.707938
w 79 -78 -69 0.463692
w 80 79 70 0
w 80 79 -70 0
w 80 -79 70 0
w 80 -79 -70 1
w 81 71 0.784276
w 81 -71 0.729768
w 82 81 72 0.00640111
w 82 81 -72 0.353277
w 82 -81 72 0.773995
w 82 -81 -72 0.527636
w 83 82 73 1
w 83 82 -73 0
w 83 -82 73 0
w 83 -82 -73 0
w 84 83 74 0
w 84 83 -74 1
w 84 -83 74 0
w 84 -83 -74 1
w 85 84 75 0.587557
w 85 84 -75 0.291333
w 85 -84 75 0.478214
w 85 -84 -75 0.46344
w 86 85 76 0.186151
w 86 85 -76 0.927131
w 86 -85 76 0.695231
w 86 -85 -76 0.603838
w 87 86 77 1
w 87 86 -77 0
w 87 -86 77 0
w 87 -86 -77 1
w 88 87 78 1
w 88 87 -78 0
w 88 -87 78 1
w 88 -87 -78 1
w 89 88 79 1
w 89 88 -79 0
w 89 -88 79 1
w 89 -88 -79 1
w 90 89 80 1
w 90 89 -80 0
w 90 -89 80 0
w 90 -89 -80 0
w 91 81 0
w 91 -81 1
w 92 91 82 1
w 92 91 -82 1
w 92 -91 82 0
w 92 -91 -82 0
w 93 92 83 0
w 93 92 -83 1
w 93 -92 83 1
w 93 -92 -83 1
w 94 93 84 0.404694
w 94 93 -84 0.183105
w 94 -93 84 0.297115
w 94 -93 -84 0.45789
w 95 94 85 0.985457
w 95 94 -85 0.864362
w 95 -94 85 0.633965
w 95 -94 -85 0.201435
w 96 95 86 0
w 96 95 -86 0
w 96 -95 86 1
w 96 -95 -86 1
w 97 96 87 1
w 97 96 -87 1
w 97 -96 87 1
w 97 -96 -87 0
w 98 97 88 0
w 98 97 -88 1
w 98 -97 88 1
w 98 -97 -88 0
w 99 98 89 0.947823
w 99 98 -89 0.789844
w 99 -98 89 0.630277
w 99 -98 -89 0.0290887
w 100 99 90 0
w 100 99 -90 0
w 100 -99 90 1
w 100 -99 -90 1